peakDumbCharging = 11100; 
Machine = anon_enum(16); 
machineSpeed = [3700,3700,3700,3700,3700,3700,3700,3700,3700,3700,3700,3700,3700,3700,3700,3700]; 
machineLoad = [3700,3700,3700,3700,3700,3700,3700,3700,3700,3700,3700,3700,3700,3700,3700,3700]; 
Car = anon_enum(8); 
demandCar = [30640,3640,9040,5680,11760,2480,4600,9960]; 
arrivalCar = [59,59,56,56,51,43,42,38]; 
departureCar = [69,62,61,58,57,45,44,42]; 
